
        $ From http://www.csplib.org/Problems/prob009/data/helmut.pdf
        $ Problem number 143
        $ Sequence length : 25
        language ESSENCE' 1.0
        letting sizemaster be 472
        letting sizes be sequence(7,9,13,15,26,34,35,44,47,51,58,61,65,81,87,103,104,115,118,123,128,133,136,148,221)
        